StringID   Type       x          y          demand     ReadyTime  DueDate    ServiceTime  wp1 wp2 wp3 wp4 wp5 wp6 wp7 wp8 wp9 wp10 wp11 wp12 wp13 wp14 wp15 wp16
D0         d          40.0       50.0       0.0        0.0        960.0      0.0          6   7   8   9   10  11  12  13  14  15   16   17   18   19   20   21  
S0         f          40.0       50.0       0.0        0.0        960.0      0.0          0.2 0.4 0.6 1   1   1   1   1   1   1    1    0.6  0.4  0.2  0    0   
S3         f          57.0       82.0       0.0        0.0        960.0      0.0          0.2 0.4 0.6 1   1   1   1   1   1   1    1    0.6  0.4  0.2  0    0
S19        f          77.0       30.0       0.0        0.0        960.0      0.0          0   0.1 0.2 0.3 0.3 0.2 0.2 0.2 0.2 0.3  0.3  0.2  0.1  0.0  0    0
C66        c          41.0       37.0       16.0       383.0      905.0      10.0          
C37        c          65.0       82.0       10.0       59.0       632.0      10.0        
C96        c          55.0       54.0       26.0       142.0      532.0      10.0         
C41        c          58.0       75.0       20.0       73.0       561.0      10.0          
C32        c          87.0       30.0       10.0       69.0       539.0      10.0         

F Vehicle fuel tank capacity /12/
Q Vehicle load capacity /1000.0/
r fuel consumption rate /0.155/
m inverse refueling rate /0.5/
v average Velocity /1.0/